p edge 35 196 24
e 1 2
e 1 3
e 1 4
e 1 5
e 1 6
e 1 7
e 1 8
e 1 9
e 1 10
e 1 11
e 1 16
e 1 17
e 1 18
e 1 21
e 1 23
e 1 27
e 1 29
e 1 31
e 1 32
e 1 33
e 2 9
e 2 10
e 2 11
e 2 17
e 2 19
e 2 23
e 2 31
e 3 9
e 3 10
e 3 12
e 3 14
e 3 16
e 3 18
e 3 19
e 3 21
e 3 22
e 3 29
e 3 30
e 3 34
e 4 9
e 4 11
e 4 12
e 4 19
e 4 21
e 4 24
e 4 31
e 5 9
e 5 10
e 5 12
e 5 13
e 5 14
e 5 15
e 5 19
e 5 20
e 5 25
e 5 28
e 5 32
e 5 33
e 6 11
e 6 12
e 6 13
e 6 15
e 6 17
e 6 18
e 6 22
e 6 25
e 7 9
e 7 10
e 7 11
e 7 12
e 7 13
e 7 14
e 7 15
e 7 19
e 7 20
e 7 22
e 7 26
e 7 29
e 7 30
e 7 33
e 7 34
e 8 9
e 8 10
e 8 11
e 8 12
e 8 14
e 8 23
e 8 25
e 8 29
e 8 31
e 9 10
e 9 11
e 9 12
e 9 13
e 9 15
e 9 16
e 9 17
e 9 18
e 9 19
e 9 23
e 9 24
e 9 25
e 9 26
e 9 27
e 9 28
e 9 33
e 10 13
e 10 14
e 10 15
e 10 16
e 10 17
e 10 18
e 10 20
e 10 22
e 10 27
e 10 28
e 10 30
e 10 31
e 11 13
e 11 14
e 11 15
e 11 21
e 11 22
e 11 23
e 11 24
e 11 30
e 11 34
e 11 35
e 12 13
e 12 14
e 12 16
e 12 17
e 12 18
e 12 20
e 12 21
e 12 22
e 12 24
e 12 27
e 12 28
e 12 29
e 12 30
e 12 32
e 12 35
e 13 15
e 13 16
e 13 18
e 13 19
e 13 20
e 13 21
e 13 24
e 13 25
e 13 32
e 13 33
e 13 35
e 14 16
e 14 17
e 14 27
e 14 35
e 15 21
e 15 22
e 15 25
e 15 26
e 15 29
e 15 35
e 16 20
e 16 30
e 16 31
e 16 35
e 17 20
e 17 33
e 17 34
e 18 26
e 18 31
e 19 26
e 20 23
e 20 26
e 20 35
e 21 26
e 21 28
e 22 23
e 22 24
e 22 27
e 22 28
e 22 30
e 22 32
e 23 24
e 23 25
e 23 34
e 24 28
e 24 34
e 25 27
e 25 29
e 26 34
e 27 32
e 27 33
e 28 32
